units lj
atom_style      atomic
lattice         fcc  0.8422
region          box  block   0  10  0  10  0  10
create_box    1  box
create_atoms   1 box
mass           1    1.0
timestep         0.01
velocity         all create  0.32  87287
pair_style     lj/cut  2.5
pair_coeff     1  1  1.0  1.0   2.5
neighbor       0.3  bin
neigh_modify    every 20  delay 0  check yes
thermo_style    custom step temp pe ke etotal 
thermo    500
fix 1 all nve
dump myDump all atom 1 dump.lammpstrj
run 100
